5 5
6 4 5 2 4 10 2 8 1 17 1 3 14 5 5 12 3 5 1 18 2 13 4 16 4 4 17 2 8 5 8 1 2 3 3 5 4 5 1 8 2 2 2 3 8
6 4 5 16 1 20 2 19 4 13 1 2 19 3 1 2 2 16 3 5 2 5 9 1 17 4 5 11 3 3 1 9 2 12 5 3 3 2 8 4 5 1 2 5 9
8 5 4 11 1 16 5 2 3 3 2 16 4 4 10 1 19 2 8 3 13 2 3 10 1 9 4 4 9 5 13 2 11 3 7 3 3 19 2 9 4 6 2 1 12 3 15 1 5 14 1 5 14
6 1 4 5 5 3 8 2 18 5 17 1 17 4 5 2 4 2 5 6 5 2 7 4 7 1 20 3 3 5 17 5 3 2 1 15 2 11 4 18 5 5 2 4 18 5 7
5 5 4 9 2 20 1 12 3 14 5 16 4 1 20 4 4 2 8 3 4 5 4 3 2 19 3 16 5 13 1 4 3 3 3 5 2 4 9 5 5 16 4 17 1 15 3 9 2 6